 10 100
 1 1 1 1 1 1 1 1 1 2 2 2 
 2 2 2 2 2 3 3 3 3 3 3 3 
 3 3 3 3 3 3 4 4 4 4 4 5 
 5 5 5 5 5 5 5 5 6 6 6 6 
 6 6 6 6 6 6 7 7 7 7 7 7 
 7 7 7 7 7 7 8 8 8 8 8 8 
 8 8 8 8 9 9 9 9 9 9 9 9 
 9 9 9 9 9 9 9 9 9 10 10 10 
 10 10 10 10 
 3
 21 68 86
 1 
 25
 2
 51 97
 1 
 57
 3 
 7 51 84
 5
 5 20 38 66 86 
 4 
 7 28 42 83 
 4 
 33 49 53 87
 7 
 2 7 22 34 46 57 79
 3 
 30 79 100